data/lp_files/q3/69_4.lp
\ Model foo
\ LP format - for model browsing. Use MPS format to capture full model detail.
Minimize
  z
Subject To
 allocateEach[1]: x[1,1] + x[2,1] + x[3,1] + x[4,1] = 1
 allocateEach[2]: x[1,2] + x[2,2] + x[3,2] + x[4,2] = 1
 allocateEach[3]: x[1,3] + x[2,3] + x[3,3] + x[4,3] = 1
 allocateEach[4]: x[1,4] + x[2,4] + x[3,4] + x[4,4] = 1
 allocateEach[5]: x[1,5] + x[2,5] + x[3,5] + x[4,5] = 1
 allocateEach[6]: x[1,6] + x[2,6] + x[3,6] + x[4,6] = 1
 allocateEach[7]: x[1,7] + x[2,7] + x[3,7] + x[4,7] = 1
 allocateEach[8]: x[1,8] + x[2,8] + x[3,8] + x[4,8] = 1
 allocateEach[9]: x[1,9] + x[2,9] + x[3,9] + x[4,9] = 1
 allocateAllCash: cashProportion[1] + cashProportion[2] + cashProportion[3]
   + cashProportion[4] = 1
 findWorstP[1,2]: z + 0.053770378973631 cashProportion[1]
   - 0.053770378973631 cashProportion[2] + 0.1906267475373166 x[1,1]
   + 0.1445132705295307 x[1,2] + 0.1191336516539769 x[1,3]
   + 0.0377252978878995 x[1,4] + 0.0431238439368521 x[1,5]
   + 0.1568589495418764 x[1,6] + 0.1338667354927517 x[1,7]
   + 0.0368864799759109 x[1,8] + 0.0834946444702542 x[1,9]
   - 0.1906267475373166 x[2,1] - 0.1445132705295307 x[2,2]
   - 0.1191336516539769 x[2,3] - 0.0377252978878995 x[2,4]
   - 0.0431238439368521 x[2,5] - 0.1568589495418764 x[2,6]
   - 0.1338667354927517 x[2,7] - 0.0368864799759109 x[2,8]
   - 0.0834946444702542 x[2,9] >= 0
 findWorstP[1,3]: z + 0.053770378973631 cashProportion[1]
   - 0.053770378973631 cashProportion[3] + 0.1906267475373166 x[1,1]
   + 0.1445132705295307 x[1,2] + 0.1191336516539769 x[1,3]
   + 0.0377252978878995 x[1,4] + 0.0431238439368521 x[1,5]
   + 0.1568589495418764 x[1,6] + 0.1338667354927517 x[1,7]
   + 0.0368864799759109 x[1,8] + 0.0834946444702542 x[1,9]
   - 0.1906267475373166 x[3,1] - 0.1445132705295307 x[3,2]
   - 0.1191336516539769 x[3,3] - 0.0377252978878995 x[3,4]
   - 0.0431238439368521 x[3,5] - 0.1568589495418764 x[3,6]
   - 0.1338667354927517 x[3,7] - 0.0368864799759109 x[3,8]
   - 0.0834946444702542 x[3,9] >= 0
 findWorstP[1,4]: z + 0.053770378973631 cashProportion[1]
   - 0.053770378973631 cashProportion[4] + 0.1906267475373166 x[1,1]
   + 0.1445132705295307 x[1,2] + 0.1191336516539769 x[1,3]
   + 0.0377252978878995 x[1,4] + 0.0431238439368521 x[1,5]
   + 0.1568589495418764 x[1,6] + 0.1338667354927517 x[1,7]
   + 0.0368864799759109 x[1,8] + 0.0834946444702542 x[1,9]
   - 0.1906267475373166 x[4,1] - 0.1445132705295307 x[4,2]
   - 0.1191336516539769 x[4,3] - 0.0377252978878995 x[4,4]
   - 0.0431238439368521 x[4,5] - 0.1568589495418764 x[4,6]
   - 0.1338667354927517 x[4,7] - 0.0368864799759109 x[4,8]
   - 0.0834946444702542 x[4,9] >= 0
 findWorstP[2,1]: z - 0.0430292598967298 cashProportion[1]
   + 0.0430292598967298 cashProportion[2] - 0.1483820998278829 x[1,1]
   - 0.1306368330464716 x[1,2] - 0.0692426850258176 x[1,3]
   - 0.1494836488812392 x[1,4] - 0.1187951807228916 x[1,5]
   - 0.0844922547332186 x[1,6] - 0.1346643717728055 x[1,7]
   - 0.0671428571428571 x[1,8] - 0.0541308089500861 x[1,9]
   + 0.1483820998278829 x[2,1] + 0.1306368330464716 x[2,2]
   + 0.0692426850258176 x[2,3] + 0.1494836488812392 x[2,4]
   + 0.1187951807228916 x[2,5] + 0.0844922547332186 x[2,6]
   + 0.1346643717728055 x[2,7] + 0.0671428571428571 x[2,8]
   + 0.0541308089500861 x[2,9] >= 0
 findWorstP[2,3]: z + 0.0430292598967298 cashProportion[2]
   - 0.0430292598967298 cashProportion[3] + 0.1483820998278829 x[2,1]
   + 0.1306368330464716 x[2,2] + 0.0692426850258176 x[2,3]
   + 0.1494836488812392 x[2,4] + 0.1187951807228916 x[2,5]
   + 0.0844922547332186 x[2,6] + 0.1346643717728055 x[2,7]
   + 0.0671428571428571 x[2,8] + 0.0541308089500861 x[2,9]
   - 0.1483820998278829 x[3,1] - 0.1306368330464716 x[3,2]
   - 0.0692426850258176 x[3,3] - 0.1494836488812392 x[3,4]
   - 0.1187951807228916 x[3,5] - 0.0844922547332186 x[3,6]
   - 0.1346643717728055 x[3,7] - 0.0671428571428571 x[3,8]
   - 0.0541308089500861 x[3,9] >= 0
 findWorstP[2,4]: z + 0.0430292598967298 cashProportion[2]
   - 0.0430292598967298 cashProportion[4] + 0.1483820998278829 x[2,1]
   + 0.1306368330464716 x[2,2] + 0.0692426850258176 x[2,3]
   + 0.1494836488812392 x[2,4] + 0.1187951807228916 x[2,5]
   + 0.0844922547332186 x[2,6] + 0.1346643717728055 x[2,7]
   + 0.0671428571428571 x[2,8] + 0.0541308089500861 x[2,9]
   - 0.1483820998278829 x[4,1] - 0.1306368330464716 x[4,2]
   - 0.0692426850258176 x[4,3] - 0.1494836488812392 x[4,4]
   - 0.1187951807228916 x[4,5] - 0.0844922547332186 x[4,6]
   - 0.1346643717728055 x[4,7] - 0.0671428571428571 x[4,8]
   - 0.0541308089500861 x[4,9] >= 0
 findWorstP[3,1]: z - 0.0650448809678678 cashProportion[1]
   + 0.0650448809678678 cashProportion[3] - 0.2115519708598934 x[1,1]
   - 0.1997918563809029 x[1,2] - 0.0196435540522961 x[1,3]
   - 0.00564589566801093 x[1,4] - 0.1765318069467933 x[1,5]
   - 0.2009886821907116 x[1,6] - 0.00936646285937297 x[1,7]
   - 0.1005073500715494 x[1,8] - 0.0109275400026018 x[1,9]
   + 0.2115519708598934 x[3,1] + 0.1997918563809029 x[3,2]
   + 0.0196435540522961 x[3,3] + 0.00564589566801093 x[3,4]
   + 0.1765318069467933 x[3,5] + 0.2009886821907116 x[3,6]
   + 0.00936646285937297 x[3,7] + 0.1005073500715494 x[3,8]
   + 0.0109275400026018 x[3,9] >= 0
 findWorstP[3,2]: z - 0.0650448809678678 cashProportion[2]
   + 0.0650448809678678 cashProportion[3] - 0.2115519708598934 x[2,1]
   - 0.1997918563809029 x[2,2] - 0.0196435540522961 x[2,3]
   - 0.00564589566801093 x[2,4] - 0.1765318069467933 x[2,5]
   - 0.2009886821907116 x[2,6] - 0.00936646285937297 x[2,7]
   - 0.1005073500715494 x[2,8] - 0.0109275400026018 x[2,9]
   + 0.2115519708598934 x[3,1] + 0.1997918563809029 x[3,2]
   + 0.0196435540522961 x[3,3] + 0.00564589566801093 x[3,4]
   + 0.1765318069467933 x[3,5] + 0.2009886821907116 x[3,6]
   + 0.00936646285937297 x[3,7] + 0.1005073500715494 x[3,8]
   + 0.0109275400026018 x[3,9] >= 0
 findWorstP[3,4]: z + 0.0650448809678678 cashProportion[3]
   - 0.0650448809678678 cashProportion[4] + 0.2115519708598934 x[3,1]
   + 0.1997918563809029 x[3,2] + 0.0196435540522961 x[3,3]
   + 0.00564589566801093 x[3,4] + 0.1765318069467933 x[3,5]
   + 0.2009886821907116 x[3,6] + 0.00936646285937297 x[3,7]
   + 0.1005073500715494 x[3,8] + 0.0109275400026018 x[3,9]
   - 0.2115519708598934 x[4,1] - 0.1997918563809029 x[4,2]
   - 0.0196435540522961 x[4,3] - 0.00564589566801093 x[4,4]
   - 0.1765318069467933 x[4,5] - 0.2009886821907116 x[4,6]
   - 0.00936646285937297 x[4,7] - 0.1005073500715494 x[4,8]
   - 0.0109275400026018 x[4,9] >= 0
 findWorstP[4,1]: z - 0.0441774165046828 cashProportion[1]
   + 0.0441774165046828 cashProportion[4] - 0.0994875419685457 x[1,1]
   - 0.145273016433999 x[1,2] - 0.1416327973140131 x[1,3]
   - 0.1336455204099664 x[1,4] - 0.062396183071214 x[1,5]
   - 0.130075985156388 x[1,6] - 0.0566354479590034 x[1,7]
   - 0.061565647640926 x[1,8] - 0.1251104435412617 x[1,9]
   + 0.0994875419685457 x[4,1] + 0.145273016433999 x[4,2]
   + 0.1416327973140131 x[4,3] + 0.1336455204099664 x[4,4]
   + 0.062396183071214 x[4,5] + 0.130075985156388 x[4,6]
   + 0.0566354479590034 x[4,7] + 0.061565647640926 x[4,8]
   + 0.1251104435412617 x[4,9] >= 0
 findWorstP[4,2]: z - 0.0441774165046828 cashProportion[2]
   + 0.0441774165046828 cashProportion[4] - 0.0994875419685457 x[2,1]
   - 0.145273016433999 x[2,2] - 0.1416327973140131 x[2,3]
   - 0.1336455204099664 x[2,4] - 0.062396183071214 x[2,5]
   - 0.130075985156388 x[2,6] - 0.0566354479590034 x[2,7]
   - 0.061565647640926 x[2,8] - 0.1251104435412617 x[2,9]
   + 0.0994875419685457 x[4,1] + 0.145273016433999 x[4,2]
   + 0.1416327973140131 x[4,3] + 0.1336455204099664 x[4,4]
   + 0.062396183071214 x[4,5] + 0.130075985156388 x[4,6]
   + 0.0566354479590034 x[4,7] + 0.061565647640926 x[4,8]
   + 0.1251104435412617 x[4,9] >= 0
 findWorstP[4,3]: z - 0.0441774165046828 cashProportion[3]
   + 0.0441774165046828 cashProportion[4] - 0.0994875419685457 x[3,1]
   - 0.145273016433999 x[3,2] - 0.1416327973140131 x[3,3]
   - 0.1336455204099664 x[3,4] - 0.062396183071214 x[3,5]
   - 0.130075985156388 x[3,6] - 0.0566354479590034 x[3,7]
   - 0.061565647640926 x[3,8] - 0.1251104435412617 x[3,9]
   + 0.0994875419685457 x[4,1] + 0.145273016433999 x[4,2]
   + 0.1416327973140131 x[4,3] + 0.1336455204099664 x[4,4]
   + 0.062396183071214 x[4,5] + 0.130075985156388 x[4,6]
   + 0.0566354479590034 x[4,7] + 0.061565647640926 x[4,8]
   + 0.1251104435412617 x[4,9] >= 0
Bounds
 z <= 1
 -infinity <= cashProportion[1] <= 1
 -infinity <= cashProportion[2] <= 1
 -infinity <= cashProportion[3] <= 1
 -infinity <= cashProportion[4] <= 1
Binaries
 x[1,1] x[1,2] x[1,3] x[1,4] x[1,5] x[1,6] x[1,7] x[1,8] x[1,9] x[2,1]
 x[2,2] x[2,3] x[2,4] x[2,5] x[2,6] x[2,7] x[2,8] x[2,9] x[3,1] x[3,2]
 x[3,3] x[3,4] x[3,5] x[3,6] x[3,7] x[3,8] x[3,9] x[4,1] x[4,2] x[4,3]
 x[4,4] x[4,5] x[4,6] x[4,7] x[4,8] x[4,9]
End
