data/mps_files/q3/69_4.mps
NAME foo
ROWS
 N  OBJ
 E  allocateEach[1]
 E  allocateEach[2]
 E  allocateEach[3]
 E  allocateEach[4]
 E  allocateEach[5]
 E  allocateEach[6]
 E  allocateEach[7]
 E  allocateEach[8]
 E  allocateEach[9]
 E  allocateAllCash
 G  findWorstP[1,2]
 G  findWorstP[1,3]
 G  findWorstP[1,4]
 G  findWorstP[2,1]
 G  findWorstP[2,3]
 G  findWorstP[2,4]
 G  findWorstP[3,1]
 G  findWorstP[3,2]
 G  findWorstP[3,4]
 G  findWorstP[4,1]
 G  findWorstP[4,2]
 G  findWorstP[4,3]
COLUMNS
    z         OBJ       1
    z         findWorstP[1,2]  1
    z         findWorstP[1,3]  1
    z         findWorstP[1,4]  1
    z         findWorstP[2,1]  1
    z         findWorstP[2,3]  1
    z         findWorstP[2,4]  1
    z         findWorstP[3,1]  1
    z         findWorstP[3,2]  1
    z         findWorstP[3,4]  1
    z         findWorstP[4,1]  1
    z         findWorstP[4,2]  1
    z         findWorstP[4,3]  1
    cashProportion[1]  allocateAllCash  1
    cashProportion[1]  findWorstP[1,2]  5.3770378973631010e-02
    cashProportion[1]  findWorstP[1,3]  5.3770378973631010e-02
    cashProportion[1]  findWorstP[1,4]  5.3770378973631010e-02
    cashProportion[1]  findWorstP[2,1]  -4.3029259896729774e-02
    cashProportion[1]  findWorstP[3,1]  -6.5044880967867841e-02
    cashProportion[1]  findWorstP[4,1]  -4.4177416504682807e-02
    cashProportion[2]  allocateAllCash  1
    cashProportion[2]  findWorstP[1,2]  -5.3770378973631010e-02
    cashProportion[2]  findWorstP[2,1]  4.3029259896729774e-02
    cashProportion[2]  findWorstP[2,3]  4.3029259896729774e-02
    cashProportion[2]  findWorstP[2,4]  4.3029259896729774e-02
    cashProportion[2]  findWorstP[3,2]  -6.5044880967867841e-02
    cashProportion[2]  findWorstP[4,2]  -4.4177416504682807e-02
    cashProportion[3]  allocateAllCash  1
    cashProportion[3]  findWorstP[1,3]  -5.3770378973631010e-02
    cashProportion[3]  findWorstP[2,3]  -4.3029259896729774e-02
    cashProportion[3]  findWorstP[3,1]  6.5044880967867841e-02
    cashProportion[3]  findWorstP[3,2]  6.5044880967867841e-02
    cashProportion[3]  findWorstP[3,4]  6.5044880967867841e-02
    cashProportion[3]  findWorstP[4,3]  -4.4177416504682807e-02
    cashProportion[4]  allocateAllCash  1
    cashProportion[4]  findWorstP[1,4]  -5.3770378973631010e-02
    cashProportion[4]  findWorstP[2,4]  -4.3029259896729774e-02
    cashProportion[4]  findWorstP[3,4]  -6.5044880967867841e-02
    cashProportion[4]  findWorstP[4,1]  4.4177416504682807e-02
    cashProportion[4]  findWorstP[4,2]  4.4177416504682807e-02
    cashProportion[4]  findWorstP[4,3]  4.4177416504682807e-02
    MARKER    'MARKER'                 'INTORG'
    x[1,1]    allocateEach[1]  1
    x[1,1]    findWorstP[1,2]  1.9062674753731665e-01
    x[1,1]    findWorstP[1,3]  1.9062674753731665e-01
    x[1,1]    findWorstP[1,4]  1.9062674753731665e-01
    x[1,1]    findWorstP[2,1]  -1.4838209982788295e-01
    x[1,1]    findWorstP[3,1]  -2.1155197085989338e-01
    x[1,1]    findWorstP[4,1]  -9.9487541968545673e-02
    x[1,2]    allocateEach[2]  1
    x[1,2]    findWorstP[1,2]  1.4451327052953072e-01
    x[1,2]    findWorstP[1,3]  1.4451327052953072e-01
    x[1,2]    findWorstP[1,4]  1.4451327052953072e-01
    x[1,2]    findWorstP[2,1]  -1.3063683304647158e-01
    x[1,2]    findWorstP[3,1]  -1.9979185638090285e-01
    x[1,2]    findWorstP[4,1]  -1.4527301643399895e-01
    x[1,3]    allocateEach[3]  1
    x[1,3]    findWorstP[1,2]  1.1913365165397685e-01
    x[1,3]    findWorstP[1,3]  1.1913365165397685e-01
    x[1,3]    findWorstP[1,4]  1.1913365165397685e-01
    x[1,3]    findWorstP[2,1]  -6.9242685025817555e-02
    x[1,3]    findWorstP[3,1]  -1.9643554052296088e-02
    x[1,3]    findWorstP[4,1]  -1.4163279731401307e-01
    x[1,4]    allocateEach[4]  1
    x[1,4]    findWorstP[1,2]  3.7725297887899516e-02
    x[1,4]    findWorstP[1,3]  3.7725297887899516e-02
    x[1,4]    findWorstP[1,4]  3.7725297887899516e-02
    x[1,4]    findWorstP[2,1]  -1.4948364888123924e-01
    x[1,4]    findWorstP[3,1]  -5.6458956680109284e-03
    x[1,4]    findWorstP[4,1]  -1.3364552040996641e-01
    x[1,5]    allocateEach[5]  1
    x[1,5]    findWorstP[1,2]  4.3123843936852070e-02
    x[1,5]    findWorstP[1,3]  4.3123843936852070e-02
    x[1,5]    findWorstP[1,4]  4.3123843936852070e-02
    x[1,5]    findWorstP[2,1]  -1.1879518072289157e-01
    x[1,5]    findWorstP[3,1]  -1.7653180694679332e-01
    x[1,5]    findWorstP[4,1]  -0.062396183071214
    x[1,6]    allocateEach[6]  1
    x[1,6]    findWorstP[1,2]  1.5685894954187637e-01
    x[1,6]    findWorstP[1,3]  1.5685894954187637e-01
    x[1,6]    findWorstP[1,4]  1.5685894954187637e-01
    x[1,6]    findWorstP[2,1]  -8.4492254733218586e-02
    x[1,6]    findWorstP[3,1]  -2.0098868219071162e-01
    x[1,6]    findWorstP[4,1]  -1.3007598515638805e-01
    x[1,7]    allocateEach[7]  1
    x[1,7]    findWorstP[1,2]  1.3386673549275174e-01
    x[1,7]    findWorstP[1,3]  1.3386673549275174e-01
    x[1,7]    findWorstP[1,4]  1.3386673549275174e-01
    x[1,7]    findWorstP[2,1]  -1.3466437177280549e-01
    x[1,7]    findWorstP[3,1]  -9.3664628593729676e-03
    x[1,7]    findWorstP[4,1]  -5.6635447959003361e-02
    x[1,8]    allocateEach[8]  1
    x[1,8]    findWorstP[1,2]  3.6886479975910873e-02
    x[1,8]    findWorstP[1,3]  3.6886479975910873e-02
    x[1,8]    findWorstP[1,4]  3.6886479975910873e-02
    x[1,8]    findWorstP[2,1]  -6.7142857142857143e-02
    x[1,8]    findWorstP[3,1]  -1.0050735007154939e-01
    x[1,8]    findWorstP[4,1]  -6.1565647640925959e-02
    x[1,9]    allocateEach[9]  1
    x[1,9]    findWorstP[1,2]  8.3494644470254231e-02
    x[1,9]    findWorstP[1,3]  8.3494644470254231e-02
    x[1,9]    findWorstP[1,4]  8.3494644470254231e-02
    x[1,9]    findWorstP[2,1]  -5.4130808950086054e-02
    x[1,9]    findWorstP[3,1]  -1.0927540002601798e-02
    x[1,9]    findWorstP[4,1]  -1.2511044354126169e-01
    x[2,1]    allocateEach[1]  1
    x[2,1]    findWorstP[1,2]  -1.9062674753731665e-01
    x[2,1]    findWorstP[2,1]  1.4838209982788295e-01
    x[2,1]    findWorstP[2,3]  1.4838209982788295e-01
    x[2,1]    findWorstP[2,4]  1.4838209982788295e-01
    x[2,1]    findWorstP[3,2]  -2.1155197085989338e-01
    x[2,1]    findWorstP[4,2]  -9.9487541968545673e-02
    x[2,2]    allocateEach[2]  1
    x[2,2]    findWorstP[1,2]  -1.4451327052953072e-01
    x[2,2]    findWorstP[2,1]  1.3063683304647158e-01
    x[2,2]    findWorstP[2,3]  1.3063683304647158e-01
    x[2,2]    findWorstP[2,4]  1.3063683304647158e-01
    x[2,2]    findWorstP[3,2]  -1.9979185638090285e-01
    x[2,2]    findWorstP[4,2]  -1.4527301643399895e-01
    x[2,3]    allocateEach[3]  1
    x[2,3]    findWorstP[1,2]  -1.1913365165397685e-01
    x[2,3]    findWorstP[2,1]  6.9242685025817555e-02
    x[2,3]    findWorstP[2,3]  6.9242685025817555e-02
    x[2,3]    findWorstP[2,4]  6.9242685025817555e-02
    x[2,3]    findWorstP[3,2]  -1.9643554052296088e-02
    x[2,3]    findWorstP[4,2]  -1.4163279731401307e-01
    x[2,4]    allocateEach[4]  1
    x[2,4]    findWorstP[1,2]  -3.7725297887899516e-02
    x[2,4]    findWorstP[2,1]  1.4948364888123924e-01
    x[2,4]    findWorstP[2,3]  1.4948364888123924e-01
    x[2,4]    findWorstP[2,4]  1.4948364888123924e-01
    x[2,4]    findWorstP[3,2]  -5.6458956680109284e-03
    x[2,4]    findWorstP[4,2]  -1.3364552040996641e-01
    x[2,5]    allocateEach[5]  1
    x[2,5]    findWorstP[1,2]  -4.3123843936852070e-02
    x[2,5]    findWorstP[2,1]  1.1879518072289157e-01
    x[2,5]    findWorstP[2,3]  1.1879518072289157e-01
    x[2,5]    findWorstP[2,4]  1.1879518072289157e-01
    x[2,5]    findWorstP[3,2]  -1.7653180694679332e-01
    x[2,5]    findWorstP[4,2]  -0.062396183071214
    x[2,6]    allocateEach[6]  1
    x[2,6]    findWorstP[1,2]  -1.5685894954187637e-01
    x[2,6]    findWorstP[2,1]  8.4492254733218586e-02
    x[2,6]    findWorstP[2,3]  8.4492254733218586e-02
    x[2,6]    findWorstP[2,4]  8.4492254733218586e-02
    x[2,6]    findWorstP[3,2]  -2.0098868219071162e-01
    x[2,6]    findWorstP[4,2]  -1.3007598515638805e-01
    x[2,7]    allocateEach[7]  1
    x[2,7]    findWorstP[1,2]  -1.3386673549275174e-01
    x[2,7]    findWorstP[2,1]  1.3466437177280549e-01
    x[2,7]    findWorstP[2,3]  1.3466437177280549e-01
    x[2,7]    findWorstP[2,4]  1.3466437177280549e-01
    x[2,7]    findWorstP[3,2]  -9.3664628593729676e-03
    x[2,7]    findWorstP[4,2]  -5.6635447959003361e-02
    x[2,8]    allocateEach[8]  1
    x[2,8]    findWorstP[1,2]  -3.6886479975910873e-02
    x[2,8]    findWorstP[2,1]  6.7142857142857143e-02
    x[2,8]    findWorstP[2,3]  6.7142857142857143e-02
    x[2,8]    findWorstP[2,4]  6.7142857142857143e-02
    x[2,8]    findWorstP[3,2]  -1.0050735007154939e-01
    x[2,8]    findWorstP[4,2]  -6.1565647640925959e-02
    x[2,9]    allocateEach[9]  1
    x[2,9]    findWorstP[1,2]  -8.3494644470254231e-02
    x[2,9]    findWorstP[2,1]  5.4130808950086054e-02
    x[2,9]    findWorstP[2,3]  5.4130808950086054e-02
    x[2,9]    findWorstP[2,4]  5.4130808950086054e-02
    x[2,9]    findWorstP[3,2]  -1.0927540002601798e-02
    x[2,9]    findWorstP[4,2]  -1.2511044354126169e-01
    x[3,1]    allocateEach[1]  1
    x[3,1]    findWorstP[1,3]  -1.9062674753731665e-01
    x[3,1]    findWorstP[2,3]  -1.4838209982788295e-01
    x[3,1]    findWorstP[3,1]  2.1155197085989338e-01
    x[3,1]    findWorstP[3,2]  2.1155197085989338e-01
    x[3,1]    findWorstP[3,4]  2.1155197085989338e-01
    x[3,1]    findWorstP[4,3]  -9.9487541968545673e-02
    x[3,2]    allocateEach[2]  1
    x[3,2]    findWorstP[1,3]  -1.4451327052953072e-01
    x[3,2]    findWorstP[2,3]  -1.3063683304647158e-01
    x[3,2]    findWorstP[3,1]  1.9979185638090285e-01
    x[3,2]    findWorstP[3,2]  1.9979185638090285e-01
    x[3,2]    findWorstP[3,4]  1.9979185638090285e-01
    x[3,2]    findWorstP[4,3]  -1.4527301643399895e-01
    x[3,3]    allocateEach[3]  1
    x[3,3]    findWorstP[1,3]  -1.1913365165397685e-01
    x[3,3]    findWorstP[2,3]  -6.9242685025817555e-02
    x[3,3]    findWorstP[3,1]  1.9643554052296088e-02
    x[3,3]    findWorstP[3,2]  1.9643554052296088e-02
    x[3,3]    findWorstP[3,4]  1.9643554052296088e-02
    x[3,3]    findWorstP[4,3]  -1.4163279731401307e-01
    x[3,4]    allocateEach[4]  1
    x[3,4]    findWorstP[1,3]  -3.7725297887899516e-02
    x[3,4]    findWorstP[2,3]  -1.4948364888123924e-01
    x[3,4]    findWorstP[3,1]  5.6458956680109284e-03
    x[3,4]    findWorstP[3,2]  5.6458956680109284e-03
    x[3,4]    findWorstP[3,4]  5.6458956680109284e-03
    x[3,4]    findWorstP[4,3]  -1.3364552040996641e-01
    x[3,5]    allocateEach[5]  1
    x[3,5]    findWorstP[1,3]  -4.3123843936852070e-02
    x[3,5]    findWorstP[2,3]  -1.1879518072289157e-01
    x[3,5]    findWorstP[3,1]  1.7653180694679332e-01
    x[3,5]    findWorstP[3,2]  1.7653180694679332e-01
    x[3,5]    findWorstP[3,4]  1.7653180694679332e-01
    x[3,5]    findWorstP[4,3]  -0.062396183071214
    x[3,6]    allocateEach[6]  1
    x[3,6]    findWorstP[1,3]  -1.5685894954187637e-01
    x[3,6]    findWorstP[2,3]  -8.4492254733218586e-02
    x[3,6]    findWorstP[3,1]  2.0098868219071162e-01
    x[3,6]    findWorstP[3,2]  2.0098868219071162e-01
    x[3,6]    findWorstP[3,4]  2.0098868219071162e-01
    x[3,6]    findWorstP[4,3]  -1.3007598515638805e-01
    x[3,7]    allocateEach[7]  1
    x[3,7]    findWorstP[1,3]  -1.3386673549275174e-01
    x[3,7]    findWorstP[2,3]  -1.3466437177280549e-01
    x[3,7]    findWorstP[3,1]  9.3664628593729676e-03
    x[3,7]    findWorstP[3,2]  9.3664628593729676e-03
    x[3,7]    findWorstP[3,4]  9.3664628593729676e-03
    x[3,7]    findWorstP[4,3]  -5.6635447959003361e-02
    x[3,8]    allocateEach[8]  1
    x[3,8]    findWorstP[1,3]  -3.6886479975910873e-02
    x[3,8]    findWorstP[2,3]  -6.7142857142857143e-02
    x[3,8]    findWorstP[3,1]  1.0050735007154939e-01
    x[3,8]    findWorstP[3,2]  1.0050735007154939e-01
    x[3,8]    findWorstP[3,4]  1.0050735007154939e-01
    x[3,8]    findWorstP[4,3]  -6.1565647640925959e-02
    x[3,9]    allocateEach[9]  1
    x[3,9]    findWorstP[1,3]  -8.3494644470254231e-02
    x[3,9]    findWorstP[2,3]  -5.4130808950086054e-02
    x[3,9]    findWorstP[3,1]  1.0927540002601798e-02
    x[3,9]    findWorstP[3,2]  1.0927540002601798e-02
    x[3,9]    findWorstP[3,4]  1.0927540002601798e-02
    x[3,9]    findWorstP[4,3]  -1.2511044354126169e-01
    x[4,1]    allocateEach[1]  1
    x[4,1]    findWorstP[1,4]  -1.9062674753731665e-01
    x[4,1]    findWorstP[2,4]  -1.4838209982788295e-01
    x[4,1]    findWorstP[3,4]  -2.1155197085989338e-01
    x[4,1]    findWorstP[4,1]  9.9487541968545673e-02
    x[4,1]    findWorstP[4,2]  9.9487541968545673e-02
    x[4,1]    findWorstP[4,3]  9.9487541968545673e-02
    x[4,2]    allocateEach[2]  1
    x[4,2]    findWorstP[1,4]  -1.4451327052953072e-01
    x[4,2]    findWorstP[2,4]  -1.3063683304647158e-01
    x[4,2]    findWorstP[3,4]  -1.9979185638090285e-01
    x[4,2]    findWorstP[4,1]  1.4527301643399895e-01
    x[4,2]    findWorstP[4,2]  1.4527301643399895e-01
    x[4,2]    findWorstP[4,3]  1.4527301643399895e-01
    x[4,3]    allocateEach[3]  1
    x[4,3]    findWorstP[1,4]  -1.1913365165397685e-01
    x[4,3]    findWorstP[2,4]  -6.9242685025817555e-02
    x[4,3]    findWorstP[3,4]  -1.9643554052296088e-02
    x[4,3]    findWorstP[4,1]  1.4163279731401307e-01
    x[4,3]    findWorstP[4,2]  1.4163279731401307e-01
    x[4,3]    findWorstP[4,3]  1.4163279731401307e-01
    x[4,4]    allocateEach[4]  1
    x[4,4]    findWorstP[1,4]  -3.7725297887899516e-02
    x[4,4]    findWorstP[2,4]  -1.4948364888123924e-01
    x[4,4]    findWorstP[3,4]  -5.6458956680109284e-03
    x[4,4]    findWorstP[4,1]  1.3364552040996641e-01
    x[4,4]    findWorstP[4,2]  1.3364552040996641e-01
    x[4,4]    findWorstP[4,3]  1.3364552040996641e-01
    x[4,5]    allocateEach[5]  1
    x[4,5]    findWorstP[1,4]  -4.3123843936852070e-02
    x[4,5]    findWorstP[2,4]  -1.1879518072289157e-01
    x[4,5]    findWorstP[3,4]  -1.7653180694679332e-01
    x[4,5]    findWorstP[4,1]  0.062396183071214
    x[4,5]    findWorstP[4,2]  0.062396183071214
    x[4,5]    findWorstP[4,3]  0.062396183071214
    x[4,6]    allocateEach[6]  1
    x[4,6]    findWorstP[1,4]  -1.5685894954187637e-01
    x[4,6]    findWorstP[2,4]  -8.4492254733218586e-02
    x[4,6]    findWorstP[3,4]  -2.0098868219071162e-01
    x[4,6]    findWorstP[4,1]  1.3007598515638805e-01
    x[4,6]    findWorstP[4,2]  1.3007598515638805e-01
    x[4,6]    findWorstP[4,3]  1.3007598515638805e-01
    x[4,7]    allocateEach[7]  1
    x[4,7]    findWorstP[1,4]  -1.3386673549275174e-01
    x[4,7]    findWorstP[2,4]  -1.3466437177280549e-01
    x[4,7]    findWorstP[3,4]  -9.3664628593729676e-03
    x[4,7]    findWorstP[4,1]  5.6635447959003361e-02
    x[4,7]    findWorstP[4,2]  5.6635447959003361e-02
    x[4,7]    findWorstP[4,3]  5.6635447959003361e-02
    x[4,8]    allocateEach[8]  1
    x[4,8]    findWorstP[1,4]  -3.6886479975910873e-02
    x[4,8]    findWorstP[2,4]  -6.7142857142857143e-02
    x[4,8]    findWorstP[3,4]  -1.0050735007154939e-01
    x[4,8]    findWorstP[4,1]  6.1565647640925959e-02
    x[4,8]    findWorstP[4,2]  6.1565647640925959e-02
    x[4,8]    findWorstP[4,3]  6.1565647640925959e-02
    x[4,9]    allocateEach[9]  1
    x[4,9]    findWorstP[1,4]  -8.3494644470254231e-02
    x[4,9]    findWorstP[2,4]  -5.4130808950086054e-02
    x[4,9]    findWorstP[3,4]  -1.0927540002601798e-02
    x[4,9]    findWorstP[4,1]  1.2511044354126169e-01
    x[4,9]    findWorstP[4,2]  1.2511044354126169e-01
    x[4,9]    findWorstP[4,3]  1.2511044354126169e-01
    MARKER    'MARKER'                 'INTEND'
RHS
    RHS1      allocateEach[1]  1
    RHS1      allocateEach[2]  1
    RHS1      allocateEach[3]  1
    RHS1      allocateEach[4]  1
    RHS1      allocateEach[5]  1
    RHS1      allocateEach[6]  1
    RHS1      allocateEach[7]  1
    RHS1      allocateEach[8]  1
    RHS1      allocateEach[9]  1
    RHS1      allocateAllCash  1
BOUNDS
 UP BND1      z         1
 MI BND1      cashProportion[1]
 UP BND1      cashProportion[1]  1
 MI BND1      cashProportion[2]
 UP BND1      cashProportion[2]  1
 MI BND1      cashProportion[3]
 UP BND1      cashProportion[3]  1
 MI BND1      cashProportion[4]
 UP BND1      cashProportion[4]  1
 BV BND1      x[1,1]  
 BV BND1      x[1,2]  
 BV BND1      x[1,3]  
 BV BND1      x[1,4]  
 BV BND1      x[1,5]  
 BV BND1      x[1,6]  
 BV BND1      x[1,7]  
 BV BND1      x[1,8]  
 BV BND1      x[1,9]  
 BV BND1      x[2,1]  
 BV BND1      x[2,2]  
 BV BND1      x[2,3]  
 BV BND1      x[2,4]  
 BV BND1      x[2,5]  
 BV BND1      x[2,6]  
 BV BND1      x[2,7]  
 BV BND1      x[2,8]  
 BV BND1      x[2,9]  
 BV BND1      x[3,1]  
 BV BND1      x[3,2]  
 BV BND1      x[3,3]  
 BV BND1      x[3,4]  
 BV BND1      x[3,5]  
 BV BND1      x[3,6]  
 BV BND1      x[3,7]  
 BV BND1      x[3,8]  
 BV BND1      x[3,9]  
 BV BND1      x[4,1]  
 BV BND1      x[4,2]  
 BV BND1      x[4,3]  
 BV BND1      x[4,4]  
 BV BND1      x[4,5]  
 BV BND1      x[4,6]  
 BV BND1      x[4,7]  
 BV BND1      x[4,8]  
 BV BND1      x[4,9]  
ENDATA
